Version identifier: 22.1.0.0 | 2022-03-09 | 1a383f8ce
CPXPARAM_Threads                                 1
CPXPARAM_MIP_Strategy_VariableSelect             3
CPXPARAM_TimeLimit                               599.99997311300001
1 of 1 MIP starts provided solutions.
MIP start 'm1' defined initial solution with objective 2.0000.
Tried aggregator 1 time.
MIP Presolve eliminated 10 rows and 0 columns.
MIP Presolve modified 4 coefficients.
Reduced MIP has 2109 rows, 5700 columns, and 81414 nonzeros.
Reduced MIP has 5700 binaries, 0 generals, 0 SOSs, and 0 indicators.
Presolve time = 0.05 sec. (42.53 ticks)
Probing time = 0.00 sec. (4.27 ticks)
Tried aggregator 1 time.
Detecting symmetries...
MIP Presolve eliminated 1 rows and 0 columns.
Reduced MIP has 2108 rows, 5700 columns, and 81394 nonzeros.
Reduced MIP has 5700 binaries, 0 generals, 0 SOSs, and 0 indicators.
Presolve time = 0.06 sec. (46.52 ticks)
Probing time = 0.00 sec. (4.27 ticks)
Clique table members: 1193.
MIP emphasis: balance optimality and feasibility.
MIP search method: dynamic search.
Parallel mode: none, using 1 thread.
Root relaxation solution time = 1.51 sec. (1649.72 ticks)

        Nodes                                         Cuts/
   Node  Left     Objective  IInf  Best Integer    Best Bound    ItCnt     Gap

*     0+    0                            2.0000     5700.0000              --- 
      0     0      300.0000  1291        2.0000      300.0000     5178     --- 
      0     0      300.0000  1181        2.0000      Cuts: 17    10690     --- 
      0     0      300.0000  1234        2.0000      Cuts: 30    16823     --- 
      0     0      300.0000  1179        2.0000      Cuts: 19    22762     --- 
      0     0      300.0000  1119        2.0000      Cuts: 44    28234     --- 
      0     0      300.0000  1171        2.0000      Cuts: 26    33806     --- 
Detecting symmetries...
Heuristic still looking.
*     0+    0                           59.0000      300.0000           408.47%
*     0+    0                          134.0000      300.0000           123.88%
      0     0        cutoff            134.0000      300.0000    33806  123.88%
Detecting symmetries...
      0     2      300.0000   802      134.0000      300.0000    33806  123.88%
Elapsed time = 100.50 sec. (112181.50 ticks, tree = 0.01 MB, solutions = 3)
      1     3      300.0000  1176      134.0000      300.0000    44931  123.88%
      2     4      300.0000  1219      134.0000      300.0000    51347  123.88%
      3     5      300.0000  1198      134.0000      300.0000    58352  123.88%
      4     6      300.0000  1145      134.0000      300.0000    58499  123.88%
      5     7      300.0000  1251      134.0000      300.0000    63297  123.88%
      6     8      300.0000  1145      134.0000      300.0000    63309  123.88%
      7     9      300.0000  1142      134.0000      300.0000    63359  123.88%
      8    10      300.0000  1139      134.0000      300.0000    63402  123.88%
      9    11      300.0000  1153      134.0000      300.0000    64428  123.88%
     10    12      300.0000  1139      134.0000      300.0000    64429  123.88%
Elapsed time = 116.78 sec. (130103.88 ticks, tree = 0.13 MB, solutions = 3)
     12    14      300.0000  1140      134.0000      300.0000    65673  123.88%
     14    16      300.0000  1139      134.0000      300.0000    66523  123.88%
     15    17      300.0000  1249      134.0000      300.0000    69869  123.88%
     18    20      300.0000  1245      134.0000      300.0000    72774  123.88%
     20    22      300.0000  1143      134.0000      300.0000    73592  123.88%
     23    25      300.0000  1219      134.0000      300.0000    76591  123.88%
     25    27      300.0000  1132      134.0000      300.0000    78553  123.88%
     27    29      300.0000  1131      134.0000      300.0000    79564  123.88%
     30    32      300.0000  1166      134.0000      300.0000    81333  123.88%
     33    35      300.0000  1160      134.0000      300.0000    83635  123.88%
Elapsed time = 129.62 sec. (144179.18 ticks, tree = 0.56 MB, solutions = 3)
     35    37      300.0000  1168      134.0000      300.0000    85591  123.88%
     38    39      300.0000  1122      134.0000      300.0000    87449  123.88%
     39    40      300.0000  1088      134.0000      300.0000    89572  123.88%
     40    41      300.0000  1090      134.0000      300.0000    89719  123.88%
     41    42      296.0000  1124      134.0000      300.0000    91981  123.88%
     43    44      300.0000  1099      134.0000      300.0000    93695  123.88%
     45    46      300.0000  1083      134.0000      300.0000    94331  123.88%
     46    47      300.0000  1060      134.0000      300.0000    96199  123.88%
     49    50      300.0000  1076      134.0000      300.0000   100314  123.88%
     52    53      300.0000  1007      134.0000      300.0000   100580  123.88%
Elapsed time = 148.02 sec. (163658.23 ticks, tree = 0.90 MB, solutions = 3)
     54    55      300.0000   988      134.0000      300.0000   102381  123.88%
     56    57      300.0000   928      134.0000      300.0000   105795  123.88%
     57    58      299.9478  1075      134.0000      300.0000   113942  123.88%
     59    60      300.0000   961      134.0000      300.0000   116594  123.88%
     61    61      299.8736  1030      134.0000      300.0000   134480  123.88%
     62    62      299.8560   954      134.0000      300.0000   140912  123.88%
     63    63      300.0000   873      134.0000      300.0000   154735  123.88%
     64    64      300.0000   989      134.0000      300.0000   176743  123.88%
     65    65      299.7264   955      134.0000      300.0000   180785  123.88%
     67    67      300.0000   960      134.0000      300.0000   189784  123.88%
Elapsed time = 174.05 sec. (190344.96 ticks, tree = 1.17 MB, solutions = 3)
     70    70      299.9957   892      134.0000      300.0000   194180  123.88%
     73    73      299.7008   974      134.0000      300.0000   196725  123.88%
     75    75      300.0000   957      134.0000      300.0000   198840  123.88%
     77    77      300.0000   956      134.0000      300.0000   201491  123.88%
     78    78      299.8333   933      134.0000      300.0000   203500  123.88%
     79    79      300.0000   958      134.0000      300.0000   204446  123.88%
     81    80      299.8465   968      134.0000      300.0000   208343  123.88%
     82    81      300.0000   899      134.0000      300.0000   216342  123.88%
     84    83      300.0000   900      134.0000      300.0000   219160  123.88%
     85    84      299.7864   986      134.0000      300.0000   220859  123.88%
Elapsed time = 196.88 sec. (213893.25 ticks, tree = 1.47 MB, solutions = 3)
     88    87      299.8607   970      134.0000      300.0000   225222  123.88%
     89    88      299.0000   854      134.0000      300.0000   228649  123.88%
     91    90      300.0000   911      134.0000      300.0000   229698  123.88%
     92    90      299.5127   980      134.0000      300.0000   231563  123.88%
     94    92      299.8607   984      134.0000      300.0000   234995  123.88%
     96    94      299.8465   972      134.0000      300.0000   238313  123.88%
     98    96      299.8607   961      134.0000      300.0000   241877  123.88%
    101    99      300.0000   901      134.0000      300.0000   242757  123.88%
    102    99      244.0000   683      134.0000      300.0000   247749  123.88%
    103   100      299.9070   932      134.0000      300.0000   249238  123.88%
Elapsed time = 208.28 sec. (226305.62 ticks, tree = 1.77 MB, solutions = 3)
    105   102      300.0000   906      134.0000      300.0000   250263  123.88%
    106   103      299.8446   939      134.0000      300.0000   252525  123.88%
    108   105      300.0000   912      134.0000      300.0000   255740  123.88%
    111   108      299.7264   956      134.0000      300.0000   260104  123.88%
    113   110      299.8333   929      134.0000      300.0000   262585  123.88%
    115   111      299.8627   945      134.0000      300.0000   267066  123.88%
    118   114      299.9073   945      134.0000      300.0000   269639  123.88%
    120   116      299.8465   972      134.0000      300.0000   273306  123.88%
    123   119      300.0000   870      134.0000      300.0000   275449  123.88%
    125   121      299.8454   945      134.0000      300.0000   279629  123.88%
Elapsed time = 220.51 sec. (239666.97 ticks, tree = 2.19 MB, solutions = 3)
    126   122      299.7264   892      134.0000      300.0000   286315  123.88%
    128   124      300.0000   938      134.0000      300.0000   288890  123.88%
    129   124      299.7468   930      134.0000      300.0000   294292  123.88%
    130   125      299.9725   889      134.0000      300.0000   304616  123.88%
    132   127      300.0000   894      134.0000      300.0000   304629  123.88%
    133   128      299.8859   948      134.0000      300.0000   307129  123.88%
    135   130      300.0000   902      134.0000      300.0000   307305  123.88%
    136   131      299.5340   929      134.0000      300.0000   314926  123.88%
    137   131      299.7956   898      134.0000      300.0000   318793  123.88%
    139   133      299.7065   939      134.0000      300.0000   322853  123.88%
Elapsed time = 236.16 sec. (256375.36 ticks, tree = 2.40 MB, solutions = 3)
    142   136      300.0000   873      134.0000      300.0000   323134  123.88%
    145   139      300.0000   869      134.0000      300.0000   323800  123.88%
    148   142      299.7803   933      134.0000      300.0000   331295  123.88%
    150   144      299.8286   851      134.0000      300.0000   338930  123.88%
    153   147      299.9015   942      134.0000      300.0000   344829  123.88%
    156   150      300.0000   847      134.0000      300.0000   345368  123.88%
    157   151      299.5372   968      134.0000      300.0000   352431  123.88%
    158   152      300.0000   966      134.0000      300.0000   362887  123.88%
    160   154      299.7199   975      134.0000      300.0000   371002  123.88%
    162   156      299.1734   913      134.0000      300.0000   374002  123.88%
Elapsed time = 259.68 sec. (281092.88 ticks, tree = 2.85 MB, solutions = 3)
    165   159      299.7053   990      134.0000      300.0000   377727  123.88%
    168   162      299.8095   858      134.0000      300.0000   384059  123.88%
    170   164      299.8301   920      134.0000      300.0000   386902  123.88%
    174   166      299.0000   884      134.0000      300.0000   389879  123.88%
    176   168      299.0000   908      134.0000      300.0000   392127  123.88%
    179   170      299.8301   961      134.0000      300.0000   393520  123.88%
    182   173      299.8301   960      134.0000      300.0000   394758  123.88%
    185   176      299.8301   933      134.0000      300.0000   397178  123.88%
    187   178      299.5172   929      134.0000      300.0000   401542  123.88%
    195   185      299.8301   957      134.0000      300.0000   412170  123.88%
Elapsed time = 275.01 sec. (297165.55 ticks, tree = 3.38 MB, solutions = 3)
    200   189      299.0000   945      134.0000      300.0000   422166  123.88%
    208   196      299.8054   959      134.0000      300.0000   430290  123.88%
    215   200    infeasible            134.0000      300.0000   442319  123.88%
    220   205      299.3702   951      134.0000      300.0000   446714  123.88%
    228   213      299.0000   931      134.0000      300.0000   456165  123.88%
    236   221      299.7298   941      134.0000      300.0000   466225  123.88%
    244   229      299.4167   821      134.0000      300.0000   479109  123.88%
    250   235      298.7508   860      134.0000      300.0000   489394  123.88%
    257   242      299.3873   914      134.0000      300.0000   499528  123.88%
    263   247      299.1891   905      134.0000      300.0000   514291  123.88%
Elapsed time = 328.44 sec. (351667.71 ticks, tree = 4.57 MB, solutions = 3)
    271   255      299.3873   931      134.0000      300.0000   525066  123.88%
    276   260      299.3873   919      134.0000      300.0000   537039  123.88%
    284   268      298.7323   846      134.0000      300.0000   552933  123.88%
    291   275      299.0587   919      134.0000      300.0000   567633  123.88%
    299   283      298.9791   813      134.0000      300.0000   583016  123.88%
    307   291      299.2553   831      134.0000      300.0000   596745  123.88%
    312   296      299.1667   789      134.0000      300.0000   607979  123.88%
    318   302      298.6667   770      134.0000      300.0000   623072  123.88%
    327   310      298.6667   791      134.0000      300.0000   629049  123.88%
    334   317      298.6111   830      134.0000      300.0000   635633  123.88%
Elapsed time = 368.50 sec. (393121.50 ticks, tree = 5.90 MB, solutions = 3)
    345   328      298.2170   783      134.0000      300.0000   642570  123.88%
    355   336      298.0811   797      134.0000      300.0000   648536  123.88%
    366   347      297.7072   802      134.0000      300.0000   655049  123.88%
    376   354      297.6728   727      134.0000      300.0000   663384  123.88%
    387   364      296.6809   641      134.0000      300.0000   668817  123.88%
    398   374      296.4000   654      134.0000      300.0000   674516  123.88%
    403   379      295.3333   606      134.0000      300.0000   677777  123.88%
    413   388      295.4068   554      134.0000      300.0000   685437  123.88%
    421   396      295.4068   503      134.0000      300.0000   693160  123.88%
    433   408      294.9550   578      134.0000      300.0000   700876  123.88%
Elapsed time = 408.55 sec. (434622.43 ticks, tree = 7.62 MB, solutions = 3)
    448   421      294.5660   499      134.0000      300.0000   707986  123.88%
    462   432    infeasible            134.0000      300.0000   715291  123.88%
    473   442      293.0000   513      134.0000      300.0000   724602  123.88%
    482   449      293.0000   450      134.0000      300.0000   729379  123.88%
    499   460      292.3774   419      134.0000      300.0000   738436  123.88%
    515   473      291.1229   364      134.0000      300.0000   745040  123.88%
    535   489      290.5135   333      134.0000      300.0000   752525  123.88%
    562   503      289.8113   333      134.0000      300.0000   761500  123.88%
    593   521      286.5000   220      134.0000      300.0000   770388  123.88%
    596   520      299.4324  1009      134.0000      300.0000   776844  123.88%
Elapsed time = 449.22 sec. (474082.48 ticks, tree = 9.77 MB, solutions = 3)
    600   522      299.4189  1011      134.0000      300.0000   778542  123.88%
    610   529      299.4189   989      134.0000      300.0000   783093  123.88%
    619   538      299.4189  1027      134.0000      300.0000   786993  123.88%
    628   547      299.0000   984      134.0000      300.0000   791183  123.88%
    635   552      298.9600   965      134.0000      300.0000   796664  123.88%
    644   561      299.4189   997      134.0000      300.0000   800285  123.88%
    652   568      299.3911  1014      134.0000      300.0000   804133  123.88%
    661   577      298.9655   990      134.0000      300.0000   809118  123.88%
    669   585      299.3911  1016      134.0000      300.0000   813501  123.88%
    676   592      299.3413   971      134.0000      300.0000   818502  123.88%
Elapsed time = 496.57 sec. (524763.54 ticks, tree = 11.13 MB, solutions = 3)
    686   602      299.0000   930      134.0000      300.0000   823046  123.88%
    694   610      298.8160   993      134.0000      300.0000   828180  123.88%
    706   622      254.0000   645      134.0000      300.0000   832184  123.88%
    730   641      254.0000   552      134.0000      300.0000   834408  123.88%
    758   660      254.0000   453      134.0000      300.0000   838484  123.88%
    802   692      254.0000   242      134.0000      300.0000   845571  123.88%
*   840+  613                          254.0000      300.0000            18.11%
    841   613      299.6914  1004      254.0000      300.0000   858005   18.11%
    843   612      299.5758  1017      254.0000      300.0000   865803   18.11%
    845   613      299.5384  1020      254.0000      300.0000   872688   18.11%
    852   618      298.7900  1001      254.0000      300.0000   877561   18.11%
Elapsed time = 536.50 sec. (567613.84 ticks, tree = 11.63 MB, solutions = 4)
    860   625      299.4578  1063      254.0000      300.0000   881055   18.11%
    868   633      299.3231  1049      254.0000      300.0000   884310   18.11%
    878   643      299.2378  1044      254.0000      300.0000   888135   18.11%
    887   651      299.2088  1036      254.0000      300.0000   891854   18.11%
    890   654      299.3358  1076      254.0000      300.0000   892204   18.11%
    897   660      299.0590  1044      254.0000      300.0000   896287   18.11%
Starting limited solution polishing.

Clique cuts applied:  65
Zero-half cuts applied:  29

Root node processing (before b&c):
  Real time             =  100.44 sec. (112117.95 ticks)
Sequential b&c:
  Real time             =  499.57 sec. (517134.42 ticks)
                          ------------
Total (root+branch&cut) =  600.01 sec. (629252.37 ticks)
Primal:	254
Dual:	300
Status:	Feasible
Time:	599.99
Sequence:
	13
	6
	10
	7
	15
	0
	0
	10
	4
	15
	0
	5
	15
	3
	15
	0
	8
	10
	4
	10
	0
	5
	15
	2
	11
	5
	0
	10
	7
	15
	0
	15
	0
	15
	4
	10
	0
	15
	2
	15
	0
	17
	0
	10
	7
	15
	0
	15
	4
	10
	5
	5
	10
	3
	15
	0
	15
	0
	7
	15
	1
	15
	2
	15
	5
	10
	4
	15
	0
	7
	15
	1
	15
	7
	10
	5
	15
	2
	0
	15
	2
	5
	10
	7
	10
	4
	10
	0
	7
	10
	0
	17
	0
	15
	2
	5
	10
	7
	1
	10
	5
	10
	7
	15
	0
	6
	15
	2
	15
	5
	10
	7
	10
	5
	2
	0
	15
	7
	10
	5
	12
	5
	15
	2
	15
	5
	10
	7
	15
	1
	2
	15
	5
	10
	4
	0
	15
	5
	2
	15
	5
	12
	5
	15
	2
	15
	5
	10
	4
	15
	0
	7
	10
	5
	17
	0
	10
	7
	5
	11
	0
	7
	10
	5
	2
	10
	5
	15
	0
	10
	4
	15
	0
	15
	2
	15
	5
	10
	7
	15
	0
	13
	4
	10
	7
	15
	0
	7
	15
	0
	15
	8
	10
	4
	0
	7
	10
	5
	10
	8
	10
	4
	15
	0
	5
	15
	3
	15
	5
	10
	8
	10
	4
	8
	10
	5
	10
	4
	10
	8
	15
	0
	4
	10
	8
	10
	5
	3
	15
	5
	10
	7
	15
	1
	15
	7
	10
	5
	3
	5
	10
	7
	5
	11
	5
	10
	7
	10
	5
	10
	7
	10
	5
	14
